NAME : pr124
TYPE : OP
DIMENSION : 124
COST_LIMIT : 17710
ROUTE_NODES : 37
ROUTE_SCORE : 1937
ROUTE_COST : 17476
NODE_SEQUENCE_SECTION
1
8
7
27
28
29
35
59
61
60
67
80
79
78
77
76
75
74
73
72
71
70
69
68
64
65
66
62
33
34
30
31
32
6
4
3
2
-1
DEPOT_SECTION
1
-1
EOF
